db/data/1691118978585219067417155161461629081.z3.out
-------------------
2500.161535932
